Route #1: 34 19 30 40 11 17 18
Route #2: 32 20 5 21 33 41 8 10 3
Route #3: 24 37 27 43 13
Route #4: 6 44 1
Route #5: 9 22 42 4 16 36 39 12
Route #6: 38 2 25 15 31 35 14
Route #7: 26 29 7 28 23
Cost 1009.3979738089464